0    15   481
1     9   442
2     3   441
3    17   452
4     2   449
5     2   362
6     3   213
7     1   317
8    19   466
9     5    84
10    14   458
11    24   187
12     3   119
13    10   443
14    24   103
15    10   354
16    15    67
17    13   421
18    11   437
19    23   110
20    23   388
21    17    51
22    20   146
23     5   373
24     3   452
25    15   286